# Objective value = 194
u(0) 0
x(0,1) 0
x(0,2) 0
x(0,3) 0
x(0,4) 0
x(0,5) 0
x(0,6) 0
x(0,7) 0
x(0,8) 0
x(0,9) 0
x(0,10) 0
x(0,11) 0
x(0,12) 0
x(0,13) 0
x(0,14) 0
x(0,15) 0
x(0,16) 0
x(0,17) 0
x(0,18) 0
x(0,19) 0
x(0,20) 0
x(0,21) 0
x(0,22) 0
x(0,23) 0
x(0,24) 0
x(0,25) 0
x(0,26) 0
x(0,27) 0
x(0,28) 0
x(0,29) 0
x(0,30) 0
x(0,31) 0
x(0,32) 0
x(0,33) 0
x(0,34) 0
x(0,35) 0
x(0,36) 0
x(0,37) 0
x(0,38) 0
x(0,39) 0
x(0,40) 0
x(0,41) 0
x(0,42) 0
x(0,43) 0
x(0,44) 1
x(0,45) 0
x(0,46) 0
x(0,47) 0
u(1) 20
x(1,0) 0
x(1,2) 0
x(1,3) 0
x(1,4) 0
x(1,5) 0
x(1,6) 1
x(1,7) 0
x(1,8) 0
x(1,9) 0
x(1,10) 0
x(1,11) 0
x(1,12) 0
x(1,13) 0
x(1,14) 0
x(1,15) 0
x(1,16) 0
x(1,17) 0
x(1,18) 0
x(1,19) 0
x(1,20) 0
x(1,21) 0
x(1,22) 0
x(1,23) 0
x(1,24) 0
x(1,25) 0
x(1,26) 0
x(1,27) 0
x(1,28) 0
x(1,29) 0
x(1,30) 0
x(1,31) 0
x(1,32) 0
x(1,33) 0
x(1,34) 0
x(1,35) 0
x(1,36) 0
x(1,37) 0
x(1,38) 0
x(1,39) 0
x(1,40) 0
x(1,41) 0
x(1,42) 0
x(1,43) 0
x(1,44) 0
x(1,45) 0
x(1,46) 0
x(1,47) 0
u(2) 43
x(2,0) 0
x(2,1) 0
x(2,3) 0
x(2,4) 0
x(2,5) 0
x(2,6) 0
x(2,7) 0
x(2,8) 0
x(2,9) 0
x(2,10) 0
x(2,11) 0
x(2,12) 0
x(2,13) 0
x(2,14) 0
x(2,15) 0
x(2,16) 0
x(2,17) 0
x(2,18) 0
x(2,19) 0
x(2,20) 0
x(2,21) 0
x(2,22) 0
x(2,23) 0
x(2,24) 0
x(2,25) 0
x(2,26) 0
x(2,27) 0
x(2,28) 0
x(2,29) 0
x(2,30) 0
x(2,31) 0
x(2,32) 0
x(2,33) 0
x(2,34) 0
x(2,35) 0
x(2,36) 0
x(2,37) 0
x(2,38) 0
x(2,39) 1
x(2,40) 0
x(2,41) 0
x(2,42) 0
x(2,43) 0
x(2,44) 0
x(2,45) 0
x(2,46) 0
x(2,47) 0
u(3) 15
x(3,0) 0
x(3,1) 0
x(3,2) 0
x(3,4) 0
x(3,5) 0
x(3,6) 0
x(3,7) 0
x(3,8) 1
x(3,9) 0
x(3,10) 0
x(3,11) 0
x(3,12) 0
x(3,13) 0
x(3,14) 0
x(3,15) 0
x(3,16) 0
x(3,17) 0
x(3,18) 0
x(3,19) 0
x(3,20) 0
x(3,21) 0
x(3,22) 0
x(3,23) 0
x(3,24) 0
x(3,25) 0
x(3,26) 0
x(3,27) 0
x(3,28) 0
x(3,29) 0
x(3,30) 0
x(3,31) 0
x(3,32) 0
x(3,33) 0
x(3,34) 0
x(3,35) 0
x(3,36) 0
x(3,37) 0
x(3,38) 0
x(3,39) 0
x(3,40) 0
x(3,41) 0
x(3,42) 0
x(3,43) 0
x(3,44) 0
x(3,45) 0
x(3,46) 0
x(3,47) 0
u(4) 13
x(4,0) 0
x(4,1) 0
x(4,2) 0
x(4,3) 0
x(4,5) 0
x(4,6) 0
x(4,7) 0
x(4,8) 0
x(4,9) 0
x(4,10) 0
x(4,11) 0
x(4,12) 0
x(4,13) 0
x(4,14) 0
x(4,15) 0
x(4,16) 0
x(4,17) 1
x(4,18) 0
x(4,19) 0
x(4,20) 0
x(4,21) 0
x(4,22) 0
x(4,23) 0
x(4,24) 0
x(4,25) 0
x(4,26) 0
x(4,27) 0
x(4,28) 0
x(4,29) 0
x(4,30) 0
x(4,31) 0
x(4,32) 0
x(4,33) 0
x(4,34) 0
x(4,35) 0
x(4,36) 0
x(4,37) 0
x(4,38) 0
x(4,39) 0
x(4,40) 0
x(4,41) 0
x(4,42) 0
x(4,43) 0
x(4,44) 0
x(4,45) 0
x(4,46) 0
x(4,47) 0
u(5) 26
x(5,0) 0
x(5,1) 0
x(5,2) 0
x(5,3) 0
x(5,4) 0
x(5,6) 0
x(5,7) 0
x(5,8) 0
x(5,9) 0
x(5,10) 0
x(5,11) 0
x(5,12) 1
x(5,13) 0
x(5,14) 0
x(5,15) 0
x(5,16) 0
x(5,17) 0
x(5,18) 0
x(5,19) 0
x(5,20) 0
x(5,21) 0
x(5,22) 0
x(5,23) 0
x(5,24) 0
x(5,25) 0
x(5,26) 0
x(5,27) 0
x(5,28) 0
x(5,29) 0
x(5,30) 0
x(5,31) 0
x(5,32) 0
x(5,33) 0
x(5,34) 0
x(5,35) 0
x(5,36) 0
x(5,37) 0
x(5,38) 0
x(5,39) 0
x(5,40) 0
x(5,41) 0
x(5,42) 0
x(5,43) 0
x(5,44) 0
x(5,45) 0
x(5,46) 0
x(5,47) 0
u(6) 21
x(6,0) 0
x(6,1) 0
x(6,2) 0
x(6,3) 0
x(6,4) 0
x(6,5) 0
x(6,7) 0
x(6,8) 0
x(6,9) 0
x(6,10) 0
x(6,11) 0
x(6,12) 0
x(6,13) 0
x(6,14) 0
x(6,15) 0
x(6,16) 0
x(6,17) 0
x(6,18) 0
x(6,19) 0
x(6,20) 0
x(6,21) 0
x(6,22) 0
x(6,23) 0
x(6,24) 0
x(6,25) 0
x(6,26) 0
x(6,27) 0
x(6,28) 0
x(6,29) 0
x(6,30) 0
x(6,31) 0
x(6,32) 0
x(6,33) 0
x(6,34) 0
x(6,35) 0
x(6,36) 1
x(6,37) 0
x(6,38) 0
x(6,39) 0
x(6,40) 0
x(6,41) 0
x(6,42) 0
x(6,43) 0
x(6,44) 0
x(6,45) 0
x(6,46) 0
x(6,47) 0
u(7) 2
x(7,0) 0
x(7,1) 0
x(7,2) 0
x(7,3) 0
x(7,4) 0
x(7,5) 0
x(7,6) 0
x(7,8) 0
x(7,9) 0
x(7,10) 0
x(7,11) 0
x(7,12) 0
x(7,13) 0
x(7,14) 1
x(7,15) 0
x(7,16) 0
x(7,17) 0
x(7,18) 0
x(7,19) 0
x(7,20) 0
x(7,21) 0
x(7,22) 0
x(7,23) 0
x(7,24) 0
x(7,25) 0
x(7,26) 0
x(7,27) 0
x(7,28) 0
x(7,29) 0
x(7,30) 0
x(7,31) 0
x(7,32) 0
x(7,33) 0
x(7,34) 0
x(7,35) 0
x(7,36) 0
x(7,37) 0
x(7,38) 0
x(7,39) 0
x(7,40) 0
x(7,41) 0
x(7,42) 0
x(7,43) 0
x(7,44) 0
x(7,45) 0
x(7,46) 0
x(7,47) 0
u(8) 16
x(8,0) 0
x(8,1) 0
x(8,2) 0
x(8,3) 0
x(8,4) 0
x(8,5) 0
x(8,6) 0
x(8,7) 0
x(8,9) 0
x(8,10) 0
x(8,11) 0
x(8,12) 0
x(8,13) 0
x(8,14) 0
x(8,15) 0
x(8,16) 0
x(8,17) 0
x(8,18) 0
x(8,19) 0
x(8,20) 0
x(8,21) 1
x(8,22) 0
x(8,23) 0
x(8,24) 0
x(8,25) 0
x(8,26) 0
x(8,27) 0
x(8,28) 0
x(8,29) 0
x(8,30) 0
x(8,31) 0
x(8,32) 0
x(8,33) 0
x(8,34) 0
x(8,35) 0
x(8,36) 0
x(8,37) 0
x(8,38) 0
x(8,39) 0
x(8,40) 0
x(8,41) 0
x(8,42) 0
x(8,43) 0
x(8,44) 0
x(8,45) 0
x(8,46) 0
x(8,47) 0
u(9) 42
x(9,0) 0
x(9,1) 0
x(9,2) 1
x(9,3) 0
x(9,4) 0
x(9,5) 0
x(9,6) 0
x(9,7) 0
x(9,8) 0
x(9,10) 0
x(9,11) 0
x(9,12) 0
x(9,13) 0
x(9,14) 0
x(9,15) 0
x(9,16) 0
x(9,17) 0
x(9,18) 0
x(9,19) 0
x(9,20) 0
x(9,21) 0
x(9,22) 0
x(9,23) 0
x(9,24) 0
x(9,25) 0
x(9,26) 0
x(9,27) 0
x(9,28) 0
x(9,29) 0
x(9,30) 0
x(9,31) 0
x(9,32) 0
x(9,33) 0
x(9,34) 0
x(9,35) 0
x(9,36) 0
x(9,37) 0
x(9,38) 0
x(9,39) 0
x(9,40) 0
x(9,41) 0
x(9,42) 0
x(9,43) 0
x(9,44) 0
x(9,45) 0
x(9,46) 0
x(9,47) 0
u(10) 31
x(10,0) 0
x(10,1) 0
x(10,2) 0
x(10,3) 0
x(10,4) 0
x(10,5) 0
x(10,6) 0
x(10,7) 0
x(10,8) 0
x(10,9) 0
x(10,11) 0
x(10,12) 0
x(10,13) 0
x(10,14) 0
x(10,15) 1
x(10,16) 0
x(10,17) 0
x(10,18) 0
x(10,19) 0
x(10,20) 0
x(10,21) 0
x(10,22) 0
x(10,23) 0
x(10,24) 0
x(10,25) 0
x(10,26) 0
x(10,27) 0
x(10,28) 0
x(10,29) 0
x(10,30) 0
x(10,31) 0
x(10,32) 0
x(10,33) 0
x(10,34) 0
x(10,35) 0
x(10,36) 0
x(10,37) 0
x(10,38) 0
x(10,39) 0
x(10,40) 0
x(10,41) 0
x(10,42) 0
x(10,43) 0
x(10,44) 0
x(10,45) 0
x(10,46) 0
x(10,47) 0
u(11) 37
x(11,0) 0
x(11,1) 0
x(11,2) 0
x(11,3) 0
x(11,4) 0
x(11,5) 0
x(11,6) 0
x(11,7) 0
x(11,8) 0
x(11,9) 0
x(11,10) 0
x(11,12) 0
x(11,13) 0
x(11,14) 0
x(11,15) 0
x(11,16) 0
x(11,17) 0
x(11,18) 0
x(11,19) 0
x(11,20) 0
x(11,21) 0
x(11,22) 0
x(11,23) 0
x(11,24) 0
x(11,25) 0
x(11,26) 0
x(11,27) 0
x(11,28) 0
x(11,29) 0
x(11,30) 0
x(11,31) 0
x(11,32) 1
x(11,33) 0
x(11,34) 0
x(11,35) 0
x(11,36) 0
x(11,37) 0
x(11,38) 0
x(11,39) 0
x(11,40) 0
x(11,41) 0
x(11,42) 0
x(11,43) 0
x(11,44) 0
x(11,45) 0
x(11,46) 0
x(11,47) 0
u(12) 27
x(12,0) 0
x(12,1) 0
x(12,2) 0
x(12,3) 0
x(12,4) 0
x(12,5) 0
x(12,6) 0
x(12,7) 0
x(12,8) 0
x(12,9) 0
x(12,10) 0
x(12,11) 0
x(12,13) 0
x(12,14) 0
x(12,15) 0
x(12,16) 0
x(12,17) 0
x(12,18) 1
x(12,19) 0
x(12,20) 0
x(12,21) 0
x(12,22) 0
x(12,23) 0
x(12,24) 0
x(12,25) 0
x(12,26) 0
x(12,27) 0
x(12,28) 0
x(12,29) 0
x(12,30) 0
x(12,31) 0
x(12,32) 0
x(12,33) 0
x(12,34) 0
x(12,35) 0
x(12,36) 0
x(12,37) 0
x(12,38) 0
x(12,39) 0
x(12,40) 0
x(12,41) 0
x(12,42) 0
x(12,43) 0
x(12,44) 0
x(12,45) 0
x(12,46) 0
x(12,47) 0
u(13) 25
x(13,0) 0
x(13,1) 0
x(13,2) 0
x(13,3) 0
x(13,4) 0
x(13,5) 1
x(13,6) 0
x(13,7) 0
x(13,8) 0
x(13,9) 0
x(13,10) 0
x(13,11) 0
x(13,12) 0
x(13,14) 0
x(13,15) 0
x(13,16) 0
x(13,17) 0
x(13,18) 0
x(13,19) 0
x(13,20) 0
x(13,21) 0
x(13,22) 0
x(13,23) 0
x(13,24) 0
x(13,25) 0
x(13,26) 0
x(13,27) 0
x(13,28) 0
x(13,29) 0
x(13,30) 0
x(13,31) 0
x(13,32) 0
x(13,33) 0
x(13,34) 0
x(13,35) 0
x(13,36) 0
x(13,37) 0
x(13,38) 0
x(13,39) 0
x(13,40) 0
x(13,41) 0
x(13,42) 0
x(13,43) 0
x(13,44) 0
x(13,45) 0
x(13,46) 0
x(13,47) 0
u(14) 3
x(14,0) 0
x(14,1) 0
x(14,2) 0
x(14,3) 0
x(14,4) 0
x(14,5) 0
x(14,6) 0
x(14,7) 0
x(14,8) 0
x(14,9) 0
x(14,10) 0
x(14,11) 0
x(14,12) 0
x(14,13) 0
x(14,15) 0
x(14,16) 0
x(14,17) 0
x(14,18) 0
x(14,19) 0
x(14,20) 0
x(14,21) 0
x(14,22) 0
x(14,23) 0
x(14,24) 0
x(14,25) 0
x(14,26) 0
x(14,27) 0
x(14,28) 0
x(14,29) 0
x(14,30) 1
x(14,31) 0
x(14,32) 0
x(14,33) 0
x(14,34) 0
x(14,35) 0
x(14,36) 0
x(14,37) 0
x(14,38) 0
x(14,39) 0
x(14,40) 0
x(14,41) 0
x(14,42) 0
x(14,43) 0
x(14,44) 0
x(14,45) 0
x(14,46) 0
x(14,47) 0
u(15) 32
x(15,0) 0
x(15,1) 0
x(15,2) 0
x(15,3) 0
x(15,4) 0
x(15,5) 0
x(15,6) 0
x(15,7) 0
x(15,8) 0
x(15,9) 0
x(15,10) 0
x(15,11) 0
x(15,12) 0
x(15,13) 0
x(15,14) 0
x(15,16) 0
x(15,17) 0
x(15,18) 0
x(15,19) 0
x(15,20) 1
x(15,21) 0
x(15,22) 0
x(15,23) 0
x(15,24) 0
x(15,25) 0
x(15,26) 0
x(15,27) 0
x(15,28) 0
x(15,29) 0
x(15,30) 0
x(15,31) 0
x(15,32) 0
x(15,33) 0
x(15,34) 0
x(15,35) 0
x(15,36) 0
x(15,37) 0
x(15,38) 0
x(15,39) 0
x(15,40) 0
x(15,41) 0
x(15,42) 0
x(15,43) 0
x(15,44) 0
x(15,45) 0
x(15,46) 0
x(15,47) 0
u(16) 36
x(16,0) 0
x(16,1) 0
x(16,2) 0
x(16,3) 0
x(16,4) 0
x(16,5) 0
x(16,6) 0
x(16,7) 0
x(16,8) 0
x(16,9) 0
x(16,10) 0
x(16,11) 1
x(16,12) 0
x(16,13) 0
x(16,14) 0
x(16,15) 0
x(16,17) 0
x(16,18) 0
x(16,19) 0
x(16,20) 0
x(16,21) 0
x(16,22) 0
x(16,23) 0
x(16,24) 0
x(16,25) 0
x(16,26) 0
x(16,27) 0
x(16,28) 0
x(16,29) 0
x(16,30) 0
x(16,31) 0
x(16,32) 0
x(16,33) 0
x(16,34) 0
x(16,35) 0
x(16,36) 0
x(16,37) 0
x(16,38) 0
x(16,39) 0
x(16,40) 0
x(16,41) 0
x(16,42) 0
x(16,43) 0
x(16,44) 0
x(16,45) 0
x(16,46) 0
x(16,47) 0
u(17) 14
x(17,0) 0
x(17,1) 0
x(17,2) 0
x(17,3) 1
x(17,4) 0
x(17,5) 0
x(17,6) 0
x(17,7) 0
x(17,8) 0
x(17,9) 0
x(17,10) 0
x(17,11) 0
x(17,12) 0
x(17,13) 0
x(17,14) 0
x(17,15) 0
x(17,16) 0
x(17,18) 0
x(17,19) 0
x(17,20) 0
x(17,21) 0
x(17,22) 0
x(17,23) 0
x(17,24) 0
x(17,25) 0
x(17,26) 0
x(17,27) 0
x(17,28) 0
x(17,29) 0
x(17,30) 0
x(17,31) 0
x(17,32) 0
x(17,33) 0
x(17,34) 0
x(17,35) 0
x(17,36) 0
x(17,37) 0
x(17,38) 0
x(17,39) 0
x(17,40) 0
x(17,41) 0
x(17,42) 0
x(17,43) 0
x(17,44) 0
x(17,45) 0
x(17,46) 0
x(17,47) 0
u(18) 28
x(18,0) 0
x(18,1) 0
x(18,2) 0
x(18,3) 0
x(18,4) 0
x(18,5) 0
x(18,6) 0
x(18,7) 0
x(18,8) 0
x(18,9) 0
x(18,10) 0
x(18,11) 0
x(18,12) 0
x(18,13) 0
x(18,14) 0
x(18,15) 0
x(18,16) 0
x(18,17) 0
x(18,19) 0
x(18,20) 0
x(18,21) 0
x(18,22) 0
x(18,23) 0
x(18,24) 0
x(18,25) 0
x(18,26) 0
x(18,27) 0
x(18,28) 0
x(18,29) 0
x(18,30) 0
x(18,31) 0
x(18,32) 0
x(18,33) 0
x(18,34) 0
x(18,35) 0
x(18,36) 0
x(18,37) 0
x(18,38) 1
x(18,39) 0
x(18,40) 0
x(18,41) 0
x(18,42) 0
x(18,43) 0
x(18,44) 0
x(18,45) 0
x(18,46) 0
x(18,47) 0
u(19) 6
x(19,0) 0
x(19,1) 0
x(19,2) 0
x(19,3) 0
x(19,4) 0
x(19,5) 0
x(19,6) 0
x(19,7) 0
x(19,8) 0
x(19,9) 0
x(19,10) 0
x(19,11) 0
x(19,12) 0
x(19,13) 0
x(19,14) 0
x(19,15) 0
x(19,16) 0
x(19,17) 0
x(19,18) 0
x(19,20) 0
x(19,21) 0
x(19,22) 0
x(19,23) 0
x(19,24) 0
x(19,25) 0
x(19,26) 0
x(19,27) 0
x(19,28) 0
x(19,29) 0
x(19,30) 0
x(19,31) 0
x(19,32) 0
x(19,33) 1
x(19,34) 0
x(19,35) 0
x(19,36) 0
x(19,37) 0
x(19,38) 0
x(19,39) 0
x(19,40) 0
x(19,41) 0
x(19,42) 0
x(19,43) 0
x(19,44) 0
x(19,45) 0
x(19,46) 0
x(19,47) 0
u(20) 33
x(20,0) 0
x(20,1) 0
x(20,2) 0
x(20,3) 0
x(20,4) 0
x(20,5) 0
x(20,6) 0
x(20,7) 0
x(20,8) 0
x(20,9) 0
x(20,10) 0
x(20,11) 0
x(20,12) 0
x(20,13) 0
x(20,14) 0
x(20,15) 0
x(20,16) 0
x(20,17) 0
x(20,18) 0
x(20,19) 0
x(20,21) 0
x(20,22) 0
x(20,23) 0
x(20,24) 0
x(20,25) 0
x(20,26) 0
x(20,27) 0
x(20,28) 0
x(20,29) 1
x(20,30) 0
x(20,31) 0
x(20,32) 0
x(20,33) 0
x(20,34) 0
x(20,35) 0
x(20,36) 0
x(20,37) 0
x(20,38) 0
x(20,39) 0
x(20,40) 0
x(20,41) 0
x(20,42) 0
x(20,43) 0
x(20,44) 0
x(20,45) 0
x(20,46) 0
x(20,47) 0
u(21) 17
x(21,0) 0
x(21,1) 0
x(21,2) 0
x(21,3) 0
x(21,4) 0
x(21,5) 0
x(21,6) 0
x(21,7) 0
x(21,8) 0
x(21,9) 0
x(21,10) 0
x(21,11) 0
x(21,12) 0
x(21,13) 0
x(21,14) 0
x(21,15) 0
x(21,16) 0
x(21,17) 0
x(21,18) 0
x(21,19) 0
x(21,20) 0
x(21,22) 0
x(21,23) 0
x(21,24) 0
x(21,25) 0
x(21,26) 1
x(21,27) 0
x(21,28) 0
x(21,29) 0
x(21,30) 0
x(21,31) 0
x(21,32) 0
x(21,33) 0
x(21,34) 0
x(21,35) 0
x(21,36) 0
x(21,37) 0
x(21,38) 0
x(21,39) 0
x(21,40) 0
x(21,41) 0
x(21,42) 0
x(21,43) 0
x(21,44) 0
x(21,45) 0
x(21,46) 0
x(21,47) 0
u(22) 45
x(22,0) 0
x(22,1) 0
x(22,2) 0
x(22,3) 0
x(22,4) 0
x(22,5) 0
x(22,6) 0
x(22,7) 0
x(22,8) 0
x(22,9) 0
x(22,10) 0
x(22,11) 0
x(22,12) 0
x(22,13) 0
x(22,14) 0
x(22,15) 0
x(22,16) 0
x(22,17) 0
x(22,18) 0
x(22,19) 0
x(22,20) 0
x(22,21) 0
x(22,23) 0
x(22,24) 1
x(22,25) 0
x(22,26) 0
x(22,27) 0
x(22,28) 0
x(22,29) 0
x(22,30) 0
x(22,31) 0
x(22,32) 0
x(22,33) 0
x(22,34) 0
x(22,35) 0
x(22,36) 0
x(22,37) 0
x(22,38) 0
x(22,39) 0
x(22,40) 0
x(22,41) 0
x(22,42) 0
x(22,43) 0
x(22,44) 0
x(22,45) 0
x(22,46) 0
x(22,47) 0
u(23) 30
x(23,0) 0
x(23,1) 0
x(23,2) 0
x(23,3) 0
x(23,4) 0
x(23,5) 0
x(23,6) 0
x(23,7) 0
x(23,8) 0
x(23,9) 0
x(23,10) 1
x(23,11) 0
x(23,12) 0
x(23,13) 0
x(23,14) 0
x(23,15) 0
x(23,16) 0
x(23,17) 0
x(23,18) 0
x(23,19) 0
x(23,20) 0
x(23,21) 0
x(23,22) 0
x(23,24) 0
x(23,25) 0
x(23,26) 0
x(23,27) 0
x(23,28) 0
x(23,29) 0
x(23,30) 0
x(23,31) 0
x(23,32) 0
x(23,33) 0
x(23,34) 0
x(23,35) 0
x(23,36) 0
x(23,37) 0
x(23,38) 0
x(23,39) 0
x(23,40) 0
x(23,41) 0
x(23,42) 0
x(23,43) 0
x(23,44) 0
x(23,45) 0
x(23,46) 0
x(23,47) 0
u(24) 46
x(24,0) 0
x(24,1) 0
x(24,2) 0
x(24,3) 0
x(24,4) 0
x(24,5) 0
x(24,6) 0
x(24,7) 0
x(24,8) 0
x(24,9) 0
x(24,10) 0
x(24,11) 0
x(24,12) 0
x(24,13) 0
x(24,14) 0
x(24,15) 0
x(24,16) 0
x(24,17) 0
x(24,18) 0
x(24,19) 0
x(24,20) 0
x(24,21) 0
x(24,22) 0
x(24,23) 0
x(24,25) 0
x(24,26) 0
x(24,27) 0
x(24,28) 0
x(24,29) 0
x(24,30) 0
x(24,31) 0
x(24,32) 0
x(24,33) 0
x(24,34) 0
x(24,35) 0
x(24,36) 0
x(24,37) 0
x(24,38) 0
x(24,39) 0
x(24,40) 0
x(24,41) 0
x(24,42) 0
x(24,43) 0
x(24,44) 0
x(24,45) 0
x(24,46) 0
x(24,47) 1
u(25) 11
x(25,0) 0
x(25,1) 0
x(25,2) 0
x(25,3) 0
x(25,4) 0
x(25,5) 0
x(25,6) 0
x(25,7) 0
x(25,8) 0
x(25,9) 0
x(25,10) 0
x(25,11) 0
x(25,12) 0
x(25,13) 0
x(25,14) 0
x(25,15) 0
x(25,16) 0
x(25,17) 0
x(25,18) 0
x(25,19) 0
x(25,20) 0
x(25,21) 0
x(25,22) 0
x(25,23) 0
x(25,24) 0
x(25,26) 0
x(25,27) 0
x(25,28) 0
x(25,29) 0
x(25,30) 0
x(25,31) 0
x(25,32) 0
x(25,33) 0
x(25,34) 0
x(25,35) 0
x(25,36) 0
x(25,37) 0
x(25,38) 0
x(25,39) 0
x(25,40) 0
x(25,41) 0
x(25,42) 0
x(25,43) 0
x(25,44) 0
x(25,45) 0
x(25,46) 1
x(25,47) 0
u(26) 18
x(26,0) 0
x(26,1) 0
x(26,2) 0
x(26,3) 0
x(26,4) 0
x(26,5) 0
x(26,6) 0
x(26,7) 0
x(26,8) 0
x(26,9) 0
x(26,10) 0
x(26,11) 0
x(26,12) 0
x(26,13) 0
x(26,14) 0
x(26,15) 0
x(26,16) 0
x(26,17) 0
x(26,18) 0
x(26,19) 0
x(26,20) 0
x(26,21) 0
x(26,22) 0
x(26,23) 0
x(26,24) 0
x(26,25) 0
x(26,27) 0
x(26,28) 0
x(26,29) 0
x(26,30) 0
x(26,31) 0
x(26,32) 0
x(26,33) 0
x(26,34) 0
x(26,35) 0
x(26,36) 0
x(26,37) 0
x(26,38) 0
x(26,39) 0
x(26,40) 0
x(26,41) 0
x(26,42) 0
x(26,43) 0
x(26,44) 0
x(26,45) 1
x(26,46) 0
x(26,47) 0
u(27) 23
x(27,0) 0
x(27,1) 0
x(27,2) 0
x(27,3) 0
x(27,4) 0
x(27,5) 0
x(27,6) 0
x(27,7) 0
x(27,8) 0
x(27,9) 0
x(27,10) 0
x(27,11) 0
x(27,12) 0
x(27,13) 0
x(27,14) 0
x(27,15) 0
x(27,16) 0
x(27,17) 0
x(27,18) 0
x(27,19) 0
x(27,20) 0
x(27,21) 0
x(27,22) 0
x(27,23) 0
x(27,24) 0
x(27,25) 0
x(27,26) 0
x(27,28) 0
x(27,29) 0
x(27,30) 0
x(27,31) 0
x(27,32) 0
x(27,33) 0
x(27,34) 0
x(27,35) 0
x(27,36) 0
x(27,37) 0
x(27,38) 0
x(27,39) 0
x(27,40) 0
x(27,41) 0
x(27,42) 0
x(27,43) 1
x(27,44) 0
x(27,45) 0
x(27,46) 0
x(27,47) 0
u(28) 40
x(28,0) 0
x(28,1) 0
x(28,2) 0
x(28,3) 0
x(28,4) 0
x(28,5) 0
x(28,6) 0
x(28,7) 0
x(28,8) 0
x(28,9) 0
x(28,10) 0
x(28,11) 0
x(28,12) 0
x(28,13) 0
x(28,14) 0
x(28,15) 0
x(28,16) 0
x(28,17) 0
x(28,18) 0
x(28,19) 0
x(28,20) 0
x(28,21) 0
x(28,22) 0
x(28,23) 0
x(28,24) 0
x(28,25) 0
x(28,26) 0
x(28,27) 0
x(28,29) 0
x(28,30) 0
x(28,31) 0
x(28,32) 0
x(28,33) 0
x(28,34) 0
x(28,35) 0
x(28,36) 0
x(28,37) 0
x(28,38) 0
x(28,39) 0
x(28,40) 0
x(28,41) 0
x(28,42) 1
x(28,43) 0
x(28,44) 0
x(28,45) 0
x(28,46) 0
x(28,47) 0
u(29) 34
x(29,0) 0
x(29,1) 0
x(29,2) 0
x(29,3) 0
x(29,4) 0
x(29,5) 0
x(29,6) 0
x(29,7) 0
x(29,8) 0
x(29,9) 0
x(29,10) 0
x(29,11) 0
x(29,12) 0
x(29,13) 0
x(29,14) 0
x(29,15) 0
x(29,16) 0
x(29,17) 0
x(29,18) 0
x(29,19) 0
x(29,20) 0
x(29,21) 0
x(29,22) 0
x(29,23) 0
x(29,24) 0
x(29,25) 0
x(29,26) 0
x(29,27) 0
x(29,28) 0
x(29,30) 0
x(29,31) 0
x(29,32) 0
x(29,33) 0
x(29,34) 0
x(29,35) 0
x(29,36) 0
x(29,37) 0
x(29,38) 0
x(29,39) 0
x(29,40) 0
x(29,41) 1
x(29,42) 0
x(29,43) 0
x(29,44) 0
x(29,45) 0
x(29,46) 0
x(29,47) 0
u(30) 4
x(30,0) 0
x(30,1) 0
x(30,2) 0
x(30,3) 0
x(30,4) 0
x(30,5) 0
x(30,6) 0
x(30,7) 0
x(30,8) 0
x(30,9) 0
x(30,10) 0
x(30,11) 0
x(30,12) 0
x(30,13) 0
x(30,14) 0
x(30,15) 0
x(30,16) 0
x(30,17) 0
x(30,18) 0
x(30,19) 0
x(30,20) 0
x(30,21) 0
x(30,22) 0
x(30,23) 0
x(30,24) 0
x(30,25) 0
x(30,26) 0
x(30,27) 0
x(30,28) 0
x(30,29) 0
x(30,31) 0
x(30,32) 0
x(30,33) 0
x(30,34) 0
x(30,35) 0
x(30,36) 0
x(30,37) 0
x(30,38) 0
x(30,39) 0
x(30,40) 1
x(30,41) 0
x(30,42) 0
x(30,43) 0
x(30,44) 0
x(30,45) 0
x(30,46) 0
x(30,47) 0
u(31) 9
x(31,0) 0
x(31,1) 0
x(31,2) 0
x(31,3) 0
x(31,4) 0
x(31,5) 0
x(31,6) 0
x(31,7) 0
x(31,8) 0
x(31,9) 0
x(31,10) 0
x(31,11) 0
x(31,12) 0
x(31,13) 0
x(31,14) 0
x(31,15) 0
x(31,16) 0
x(31,17) 0
x(31,18) 0
x(31,19) 0
x(31,20) 0
x(31,21) 0
x(31,22) 0
x(31,23) 0
x(31,24) 0
x(31,25) 0
x(31,26) 0
x(31,27) 0
x(31,28) 0
x(31,29) 0
x(31,30) 0
x(31,32) 0
x(31,33) 0
x(31,34) 0
x(31,35) 0
x(31,36) 0
x(31,37) 1
x(31,38) 0
x(31,39) 0
x(31,40) 0
x(31,41) 0
x(31,42) 0
x(31,43) 0
x(31,44) 0
x(31,45) 0
x(31,46) 0
x(31,47) 0
u(32) 38
x(32,0) 0
x(32,1) 0
x(32,2) 0
x(32,3) 0
x(32,4) 0
x(32,5) 0
x(32,6) 0
x(32,7) 0
x(32,8) 0
x(32,9) 0
x(32,10) 0
x(32,11) 0
x(32,12) 0
x(32,13) 0
x(32,14) 0
x(32,15) 0
x(32,16) 0
x(32,17) 0
x(32,18) 0
x(32,19) 0
x(32,20) 0
x(32,21) 0
x(32,22) 0
x(32,23) 0
x(32,24) 0
x(32,25) 0
x(32,26) 0
x(32,27) 0
x(32,28) 0
x(32,29) 0
x(32,30) 0
x(32,31) 0
x(32,33) 0
x(32,34) 0
x(32,35) 1
x(32,36) 0
x(32,37) 0
x(32,38) 0
x(32,39) 0
x(32,40) 0
x(32,41) 0
x(32,42) 0
x(32,43) 0
x(32,44) 0
x(32,45) 0
x(32,46) 0
x(32,47) 0
u(33) 7
x(33,0) 0
x(33,1) 0
x(33,2) 0
x(33,3) 0
x(33,4) 0
x(33,5) 0
x(33,6) 0
x(33,7) 0
x(33,8) 0
x(33,9) 0
x(33,10) 0
x(33,11) 0
x(33,12) 0
x(33,13) 0
x(33,14) 0
x(33,15) 0
x(33,16) 0
x(33,17) 0
x(33,18) 0
x(33,19) 0
x(33,20) 0
x(33,21) 0
x(33,22) 0
x(33,23) 0
x(33,24) 0
x(33,25) 0
x(33,26) 0
x(33,27) 0
x(33,28) 0
x(33,29) 0
x(33,30) 0
x(33,31) 0
x(33,32) 0
x(33,34) 1
x(33,35) 0
x(33,36) 0
x(33,37) 0
x(33,38) 0
x(33,39) 0
x(33,40) 0
x(33,41) 0
x(33,42) 0
x(33,43) 0
x(33,44) 0
x(33,45) 0
x(33,46) 0
x(33,47) 0
u(34) 8
x(34,0) 0
x(34,1) 0
x(34,2) 0
x(34,3) 0
x(34,4) 0
x(34,5) 0
x(34,6) 0
x(34,7) 0
x(34,8) 0
x(34,9) 0
x(34,10) 0
x(34,11) 0
x(34,12) 0
x(34,13) 0
x(34,14) 0
x(34,15) 0
x(34,16) 0
x(34,17) 0
x(34,18) 0
x(34,19) 0
x(34,20) 0
x(34,21) 0
x(34,22) 0
x(34,23) 0
x(34,24) 0
x(34,25) 0
x(34,26) 0
x(34,27) 0
x(34,28) 0
x(34,29) 0
x(34,30) 0
x(34,31) 1
x(34,32) 0
x(34,33) 0
x(34,35) 0
x(34,36) 0
x(34,37) 0
x(34,38) 0
x(34,39) 0
x(34,40) 0
x(34,41) 0
x(34,42) 0
x(34,43) 0
x(34,44) 0
x(34,45) 0
x(34,46) 0
x(34,47) 0
u(35) 39
x(35,0) 0
x(35,1) 0
x(35,2) 0
x(35,3) 0
x(35,4) 0
x(35,5) 0
x(35,6) 0
x(35,7) 0
x(35,8) 0
x(35,9) 0
x(35,10) 0
x(35,11) 0
x(35,12) 0
x(35,13) 0
x(35,14) 0
x(35,15) 0
x(35,16) 0
x(35,17) 0
x(35,18) 0
x(35,19) 0
x(35,20) 0
x(35,21) 0
x(35,22) 0
x(35,23) 0
x(35,24) 0
x(35,25) 0
x(35,26) 0
x(35,27) 0
x(35,28) 1
x(35,29) 0
x(35,30) 0
x(35,31) 0
x(35,32) 0
x(35,33) 0
x(35,34) 0
x(35,36) 0
x(35,37) 0
x(35,38) 0
x(35,39) 0
x(35,40) 0
x(35,41) 0
x(35,42) 0
x(35,43) 0
x(35,44) 0
x(35,45) 0
x(35,46) 0
x(35,47) 0
u(36) 22
x(36,0) 0
x(36,1) 0
x(36,2) 0
x(36,3) 0
x(36,4) 0
x(36,5) 0
x(36,6) 0
x(36,7) 0
x(36,8) 0
x(36,9) 0
x(36,10) 0
x(36,11) 0
x(36,12) 0
x(36,13) 0
x(36,14) 0
x(36,15) 0
x(36,16) 0
x(36,17) 0
x(36,18) 0
x(36,19) 0
x(36,20) 0
x(36,21) 0
x(36,22) 0
x(36,23) 0
x(36,24) 0
x(36,25) 0
x(36,26) 0
x(36,27) 1
x(36,28) 0
x(36,29) 0
x(36,30) 0
x(36,31) 0
x(36,32) 0
x(36,33) 0
x(36,34) 0
x(36,35) 0
x(36,37) 0
x(36,38) 0
x(36,39) 0
x(36,40) 0
x(36,41) 0
x(36,42) 0
x(36,43) 0
x(36,44) 0
x(36,45) 0
x(36,46) 0
x(36,47) 0
u(37) 10
x(37,0) 0
x(37,1) 0
x(37,2) 0
x(37,3) 0
x(37,4) 0
x(37,5) 0
x(37,6) 0
x(37,7) 0
x(37,8) 0
x(37,9) 0
x(37,10) 0
x(37,11) 0
x(37,12) 0
x(37,13) 0
x(37,14) 0
x(37,15) 0
x(37,16) 0
x(37,17) 0
x(37,18) 0
x(37,19) 0
x(37,20) 0
x(37,21) 0
x(37,22) 0
x(37,23) 0
x(37,24) 0
x(37,25) 1
x(37,26) 0
x(37,27) 0
x(37,28) 0
x(37,29) 0
x(37,30) 0
x(37,31) 0
x(37,32) 0
x(37,33) 0
x(37,34) 0
x(37,35) 0
x(37,36) 0
x(37,38) 0
x(37,39) 0
x(37,40) 0
x(37,41) 0
x(37,42) 0
x(37,43) 0
x(37,44) 0
x(37,45) 0
x(37,46) 0
x(37,47) 0
u(38) 29
x(38,0) 0
x(38,1) 0
x(38,2) 0
x(38,3) 0
x(38,4) 0
x(38,5) 0
x(38,6) 0
x(38,7) 0
x(38,8) 0
x(38,9) 0
x(38,10) 0
x(38,11) 0
x(38,12) 0
x(38,13) 0
x(38,14) 0
x(38,15) 0
x(38,16) 0
x(38,17) 0
x(38,18) 0
x(38,19) 0
x(38,20) 0
x(38,21) 0
x(38,22) 0
x(38,23) 1
x(38,24) 0
x(38,25) 0
x(38,26) 0
x(38,27) 0
x(38,28) 0
x(38,29) 0
x(38,30) 0
x(38,31) 0
x(38,32) 0
x(38,33) 0
x(38,34) 0
x(38,35) 0
x(38,36) 0
x(38,37) 0
x(38,39) 0
x(38,40) 0
x(38,41) 0
x(38,42) 0
x(38,43) 0
x(38,44) 0
x(38,45) 0
x(38,46) 0
x(38,47) 0
u(39) 44
x(39,0) 0
x(39,1) 0
x(39,2) 0
x(39,3) 0
x(39,4) 0
x(39,5) 0
x(39,6) 0
x(39,7) 0
x(39,8) 0
x(39,9) 0
x(39,10) 0
x(39,11) 0
x(39,12) 0
x(39,13) 0
x(39,14) 0
x(39,15) 0
x(39,16) 0
x(39,17) 0
x(39,18) 0
x(39,19) 0
x(39,20) 0
x(39,21) 0
x(39,22) 1
x(39,23) 0
x(39,24) 0
x(39,25) 0
x(39,26) 0
x(39,27) 0
x(39,28) 0
x(39,29) 0
x(39,30) 0
x(39,31) 0
x(39,32) 0
x(39,33) 0
x(39,34) 0
x(39,35) 0
x(39,36) 0
x(39,37) 0
x(39,38) 0
x(39,40) 0
x(39,41) 0
x(39,42) 0
x(39,43) 0
x(39,44) 0
x(39,45) 0
x(39,46) 0
x(39,47) 0
u(40) 5
x(40,0) 0
x(40,1) 0
x(40,2) 0
x(40,3) 0
x(40,4) 0
x(40,5) 0
x(40,6) 0
x(40,7) 0
x(40,8) 0
x(40,9) 0
x(40,10) 0
x(40,11) 0
x(40,12) 0
x(40,13) 0
x(40,14) 0
x(40,15) 0
x(40,16) 0
x(40,17) 0
x(40,18) 0
x(40,19) 1
x(40,20) 0
x(40,21) 0
x(40,22) 0
x(40,23) 0
x(40,24) 0
x(40,25) 0
x(40,26) 0
x(40,27) 0
x(40,28) 0
x(40,29) 0
x(40,30) 0
x(40,31) 0
x(40,32) 0
x(40,33) 0
x(40,34) 0
x(40,35) 0
x(40,36) 0
x(40,37) 0
x(40,38) 0
x(40,39) 0
x(40,41) 0
x(40,42) 0
x(40,43) 0
x(40,44) 0
x(40,45) 0
x(40,46) 0
x(40,47) 0
u(41) 35
x(41,0) 0
x(41,1) 0
x(41,2) 0
x(41,3) 0
x(41,4) 0
x(41,5) 0
x(41,6) 0
x(41,7) 0
x(41,8) 0
x(41,9) 0
x(41,10) 0
x(41,11) 0
x(41,12) 0
x(41,13) 0
x(41,14) 0
x(41,15) 0
x(41,16) 1
x(41,17) 0
x(41,18) 0
x(41,19) 0
x(41,20) 0
x(41,21) 0
x(41,22) 0
x(41,23) 0
x(41,24) 0
x(41,25) 0
x(41,26) 0
x(41,27) 0
x(41,28) 0
x(41,29) 0
x(41,30) 0
x(41,31) 0
x(41,32) 0
x(41,33) 0
x(41,34) 0
x(41,35) 0
x(41,36) 0
x(41,37) 0
x(41,38) 0
x(41,39) 0
x(41,40) 0
x(41,42) 0
x(41,43) 0
x(41,44) 0
x(41,45) 0
x(41,46) 0
x(41,47) 0
u(42) 41
x(42,0) 0
x(42,1) 0
x(42,2) 0
x(42,3) 0
x(42,4) 0
x(42,5) 0
x(42,6) 0
x(42,7) 0
x(42,8) 0
x(42,9) 1
x(42,10) 0
x(42,11) 0
x(42,12) 0
x(42,13) 0
x(42,14) 0
x(42,15) 0
x(42,16) 0
x(42,17) 0
x(42,18) 0
x(42,19) 0
x(42,20) 0
x(42,21) 0
x(42,22) 0
x(42,23) 0
x(42,24) 0
x(42,25) 0
x(42,26) 0
x(42,27) 0
x(42,28) 0
x(42,29) 0
x(42,30) 0
x(42,31) 0
x(42,32) 0
x(42,33) 0
x(42,34) 0
x(42,35) 0
x(42,36) 0
x(42,37) 0
x(42,38) 0
x(42,39) 0
x(42,40) 0
x(42,41) 0
x(42,43) 0
x(42,44) 0
x(42,45) 0
x(42,46) 0
x(42,47) 0
u(43) 24
x(43,0) 0
x(43,1) 0
x(43,2) 0
x(43,3) 0
x(43,4) 0
x(43,5) 0
x(43,6) 0
x(43,7) 0
x(43,8) 0
x(43,9) 0
x(43,10) 0
x(43,11) 0
x(43,12) 0
x(43,13) 1
x(43,14) 0
x(43,15) 0
x(43,16) 0
x(43,17) 0
x(43,18) 0
x(43,19) 0
x(43,20) 0
x(43,21) 0
x(43,22) 0
x(43,23) 0
x(43,24) 0
x(43,25) 0
x(43,26) 0
x(43,27) 0
x(43,28) 0
x(43,29) 0
x(43,30) 0
x(43,31) 0
x(43,32) 0
x(43,33) 0
x(43,34) 0
x(43,35) 0
x(43,36) 0
x(43,37) 0
x(43,38) 0
x(43,39) 0
x(43,40) 0
x(43,41) 0
x(43,42) 0
x(43,44) 0
x(43,45) 0
x(43,46) 0
x(43,47) 0
u(44) 1
x(44,0) 0
x(44,1) 0
x(44,2) 0
x(44,3) 0
x(44,4) 0
x(44,5) 0
x(44,6) 0
x(44,7) 1
x(44,8) 0
x(44,9) 0
x(44,10) 0
x(44,11) 0
x(44,12) 0
x(44,13) 0
x(44,14) 0
x(44,15) 0
x(44,16) 0
x(44,17) 0
x(44,18) 0
x(44,19) 0
x(44,20) 0
x(44,21) 0
x(44,22) 0
x(44,23) 0
x(44,24) 0
x(44,25) 0
x(44,26) 0
x(44,27) 0
x(44,28) 0
x(44,29) 0
x(44,30) 0
x(44,31) 0
x(44,32) 0
x(44,33) 0
x(44,34) 0
x(44,35) 0
x(44,36) 0
x(44,37) 0
x(44,38) 0
x(44,39) 0
x(44,40) 0
x(44,41) 0
x(44,42) 0
x(44,43) 0
x(44,45) 0
x(44,46) 0
x(44,47) 0
u(45) 19
x(45,0) 0
x(45,1) 1
x(45,2) 0
x(45,3) 0
x(45,4) 0
x(45,5) 0
x(45,6) 0
x(45,7) 0
x(45,8) 0
x(45,9) 0
x(45,10) 0
x(45,11) 0
x(45,12) 0
x(45,13) 0
x(45,14) 0
x(45,15) 0
x(45,16) 0
x(45,17) 0
x(45,18) 0
x(45,19) 0
x(45,20) 0
x(45,21) 0
x(45,22) 0
x(45,23) 0
x(45,24) 0
x(45,25) 0
x(45,26) 0
x(45,27) 0
x(45,28) 0
x(45,29) 0
x(45,30) 0
x(45,31) 0
x(45,32) 0
x(45,33) 0
x(45,34) 0
x(45,35) 0
x(45,36) 0
x(45,37) 0
x(45,38) 0
x(45,39) 0
x(45,40) 0
x(45,41) 0
x(45,42) 0
x(45,43) 0
x(45,44) 0
x(45,46) 0
x(45,47) 0
u(46) 12
x(46,0) 0
x(46,1) 0
x(46,2) 0
x(46,3) 0
x(46,4) 1
x(46,5) 0
x(46,6) 0
x(46,7) 0
x(46,8) 0
x(46,9) 0
x(46,10) 0
x(46,11) 0
x(46,12) 0
x(46,13) 0
x(46,14) 0
x(46,15) 0
x(46,16) 0
x(46,17) 0
x(46,18) 0
x(46,19) 0
x(46,20) 0
x(46,21) 0
x(46,22) 0
x(46,23) 0
x(46,24) 0
x(46,25) 0
x(46,26) 0
x(46,27) 0
x(46,28) 0
x(46,29) 0
x(46,30) 0
x(46,31) 0
x(46,32) 0
x(46,33) 0
x(46,34) 0
x(46,35) 0
x(46,36) 0
x(46,37) 0
x(46,38) 0
x(46,39) 0
x(46,40) 0
x(46,41) 0
x(46,42) 0
x(46,43) 0
x(46,44) 0
x(46,45) 0
x(46,47) 0
u(47) 47
x(47,0) 1
x(47,1) 0
x(47,2) 0
x(47,3) 0
x(47,4) 0
x(47,5) 0
x(47,6) 0
x(47,7) 0
x(47,8) 0
x(47,9) 0
x(47,10) 0
x(47,11) 0
x(47,12) 0
x(47,13) 0
x(47,14) 0
x(47,15) 0
x(47,16) 0
x(47,17) 0
x(47,18) 0
x(47,19) 0
x(47,20) 0
x(47,21) 0
x(47,22) 0
x(47,23) 0
x(47,24) 0
x(47,25) 0
x(47,26) 0
x(47,27) 0
x(47,28) 0
x(47,29) 0
x(47,30) 0
x(47,31) 0
x(47,32) 0
x(47,33) 0
x(47,34) 0
x(47,35) 0
x(47,36) 0
x(47,37) 0
x(47,38) 0
x(47,39) 0
x(47,40) 0
x(47,41) 0
x(47,42) 0
x(47,43) 0
x(47,44) 0
x(47,45) 0
x(47,46) 0
